# Solution for model boiling_srl_ilp
# Objective value = 3.5851900522459751e+01
Z_345_1_0 0
Z_345_1_1 0
Z_345_1_2 0
Z_345_1_3 0
Z_345_1_4 1
Z_345_0_0 0
Z_345_0_1 0
Z_345_0_2 0
Z_345_0_3 0
Z_345_0_4 1
Z_345_2_0 0
Z_345_2_1 0
Z_345_2_2 0
Z_345_2_3 0
Z_345_2_4 1
Z_345_3_0 0
Z_345_3_1 0
Z_345_3_2 0
Z_345_3_3 0
Z_345_3_4 1
Z_453_2_0 0
Z_453_2_1 0
Z_453_2_2 0
Z_453_2_3 0
Z_453_2_4 1
Z_453_0_0 0
Z_453_0_1 0
Z_453_0_2 0
Z_453_0_3 0
Z_453_0_4 1
Z_453_1_0 0
Z_453_1_1 0
Z_453_1_2 0
Z_453_1_3 0
Z_453_1_4 1
Z_453_3_0 0
Z_453_3_1 0
Z_453_3_2 0
Z_453_3_3 0
Z_453_3_4 1
Z_453_12_0 0
Z_453_12_1 0
Z_453_12_2 1
Z_453_12_3 0
Z_453_12_4 0
Z_352_0_0 0
Z_352_0_1 0
Z_352_0_2 0
Z_352_0_3 1
Z_352_0_4 0
Z_290_0_0 0
Z_290_0_1 0
Z_290_0_2 0
Z_290_0_3 0
Z_290_0_4 1
Z_558_1_0 0
Z_558_1_1 0
Z_558_1_2 0
Z_558_1_3 0
Z_558_1_4 1
Z_558_2_0 0
Z_558_2_1 0
Z_558_2_2 0
Z_558_2_3 0
Z_558_2_4 1
Z_558_4_0 0
Z_558_4_1 0
Z_558_4_2 0
Z_558_4_3 0
Z_558_4_4 1
Z_558_0_0 0
Z_558_0_1 0
Z_558_0_2 0
Z_558_0_3 0
Z_558_0_4 1
Z_558_6_0 0
Z_558_6_1 0
Z_558_6_2 0
Z_558_6_3 0
Z_558_6_4 1
Z_558_5_0 0
Z_558_5_1 0
Z_558_5_2 0
Z_558_5_3 0
Z_558_5_4 1
Z_558_3_0 0
Z_558_3_1 0
Z_558_3_2 0
Z_558_3_3 1
Z_558_3_4 0
Z_362_0_0 0
Z_362_0_1 0
Z_362_0_2 0
Z_362_0_3 1
Z_362_0_4 0
Z_460_0_0 0
Z_460_0_1 0
Z_460_0_2 0
Z_460_0_3 1
Z_460_0_4 0
Z_495_0_0 0
Z_495_0_1 0
Z_495_0_2 0
Z_495_0_3 1
Z_495_0_4 0
Z_229_0_0 0
Z_229_0_1 0
Z_229_0_2 1
Z_229_0_3 0
Z_229_0_4 0
Z_754_0_0 0
Z_754_0_1 0
Z_754_0_2 0
Z_754_0_3 0
Z_754_0_4 1
Z_347_0_0 0
Z_347_0_1 0
Z_347_0_2 0
Z_347_0_3 1
Z_347_0_4 0
Z_489_0_0 0
Z_489_0_1 0
Z_489_0_2 0
Z_489_0_3 1
Z_489_0_4 0
Z_248_0_0 0
Z_248_0_1 0
Z_248_0_2 0
Z_248_0_3 1
Z_248_0_4 0
Z_651_0_0 0
Z_651_0_1 0
Z_651_0_2 1
Z_651_0_3 0
Z_651_0_4 0
Z_519_3_0 0
Z_519_3_1 0
Z_519_3_2 0
Z_519_3_3 0
Z_519_3_4 1
Z_519_8_0 0
Z_519_8_1 0
Z_519_8_2 0
Z_519_8_3 0
Z_519_8_4 1
Z_519_1_0 0
Z_519_1_1 0
Z_519_1_2 0
Z_519_1_3 0
Z_519_1_4 1
Z_519_0_0 0
Z_519_0_1 0
Z_519_0_2 0
Z_519_0_3 0
Z_519_0_4 1
Z_519_2_0 0
Z_519_2_1 0
Z_519_2_2 0
Z_519_2_3 0
Z_519_2_4 1
Z_519_7_0 0
Z_519_7_1 0
Z_519_7_2 0
Z_519_7_3 0
Z_519_7_4 1
Z_519_4_0 0
Z_519_4_1 0
Z_519_4_2 0
Z_519_4_3 1
Z_519_4_4 0
Z_519_6_0 0
Z_519_6_1 0
Z_519_6_2 0
Z_519_6_3 0
Z_519_6_4 1
Z_519_5_0 0
Z_519_5_1 0
Z_519_5_2 0
Z_519_5_3 0
Z_519_5_4 1
Z_494_0_0 0
Z_494_0_1 0
Z_494_0_2 0
Z_494_0_3 1
Z_494_0_4 0
Z_354_0_0 0
Z_354_0_1 0
Z_354_0_2 0
Z_354_0_3 1
Z_354_0_4 0
Z_391_0_0 0
Z_391_0_1 0
Z_391_0_2 1
Z_391_0_3 0
Z_391_0_4 0
Z_126_0_0 0
Z_126_0_1 0
Z_126_0_2 0
Z_126_0_3 1
Z_126_0_4 0
Z_560_1_0 0
Z_560_1_1 0
Z_560_1_2 0
Z_560_1_3 0
Z_560_1_4 1
Z_560_18_0 0
Z_560_18_1 0
Z_560_18_2 1
Z_560_18_3 0
Z_560_18_4 0
Z_560_5_0 0
Z_560_5_1 0
Z_560_5_2 0
Z_560_5_3 0
Z_560_5_4 1
Z_560_2_0 0
Z_560_2_1 0
Z_560_2_2 0
Z_560_2_3 0
Z_560_2_4 1
Z_560_0_0 0
Z_560_0_1 0
Z_560_0_2 0
Z_560_0_3 0
Z_560_0_4 1
Z_560_3_0 0
Z_560_3_1 0
Z_560_3_2 0
Z_560_3_3 0
Z_560_3_4 1
Z_560_4_0 0
Z_560_4_1 0
Z_560_4_2 0
Z_560_4_3 0
Z_560_4_4 1
Z_408_0_0 0
Z_408_0_1 0
Z_408_0_2 0
Z_408_0_3 1
Z_408_0_4 0
Z_665_0_0 0
Z_665_0_1 0
Z_665_0_2 1
Z_665_0_3 0
Z_665_0_4 0
Z_327_0_0 0
Z_327_0_1 0
Z_327_0_2 0
Z_327_0_3 1
Z_327_0_4 0
